100
32
15
8
15
5
10
9
11
17
2
2
19
1
1
2
17
2
16
4
3
2
5
3
6
1
1
18
5
2
1
4
6
1
17
17
3
1
3
2
17
2
4
2
3
1
2
4
1
3
1
17
8
2
19
1
2
1
1
18
4
1
1
2
2
4
3
1
2
2
1
1
1
1
1
1
3
1
2
1
3
21
4
1
2
1
2
2
19
2
2
1
2
1
1
2
2
2
2
2
1
1